* #variable= 341 #constraint= 123
min: +81 x1 +87 x2 +18 x3 +68 x4 +90 x5 +27 x6 +32 x7 +13 x8 +82 x9 +84 x10 +15 x11 +12 x12 +58 x13 +31 x14 +71 x15 +95 x16 +89 x17 +99 x18 +53 x19 +46 x20 +53 x21 +65 x22 +81 x23 +76 x24 +14 x25 +71 x26 +27 x27 +93 x28 +45 x29 +25 x30 +97 x31 +68 x32 +91 x33 +43 x34 +67 x35 +75 x36 +91 x37 +60 x38 +31 x39 +44 x40 +67 x41 +18 x42 +83 x43 +68 x44 +75 x45 +64 x46 +94 x47 +61 x48 +90 x49 +36 x50 +59 x51 +95 x52 +56 x53 +71 x54 +92 x55 +60 x56 ;

+81 x1 +87 x2 +18 x3 +68 x4 +90 x5 +27 x6 +32 x7 +13 x8 +82 x9 +84 x10 +15 x11 +12 x12 +58 x13 +31 x14 +71 x15 +95 x16 +89 x17 +99 x18 +53 x19 +46 x20 +53 x21 +65 x22 +81 x23 +76 x24 +14 x25 +71 x26 +27 x27 +93 x28 +45 x29 +25 x30 +97 x31 +68 x32 +91 x33 +43 x34 +67 x35 +75 x36 +91 x37 +60 x38 +31 x39 +44 x40 +67 x41 +18 x42 +83 x43 +68 x44 +75 x45 +64 x46 +94 x47 +61 x48 +90 x49 +36 x50 +59 x51 +95 x52 +56 x53 +71 x54 +92 x55 +60 x56 >= 0 ;

+1 x1 +1 x2 +1 x3 +1 x4 +1 x5 +1 x6 +1 x7 = 1 ;
+1 x8 +1 x9 +1 x10 +1 x11 +1 x12 +1 x13 +1 x14 = 1 ;
+1 x15 +1 x16 +1 x17 +1 x18 +1 x19 +1 x20 +1 x21 = 1 ;
+1 x22 +1 x23 +1 x24 +1 x25 +1 x26 +1 x27 +1 x28 = 1 ;
+1 x29 +1 x30 +1 x31 +1 x32 +1 x33 +1 x34 +1 x35 = 1 ;
+1 x36 +1 x37 +1 x38 +1 x39 +1 x40 +1 x41 +1 x42 = 1 ;
+1 x43 +1 x44 +1 x45 +1 x46 +1 x47 +1 x48 +1 x49 = 1 ;
+1 x50 +1 x51 +1 x52 +1 x53 +1 x54 +1 x55 +1 x56 = 1 ;

+1 x8 +1 x15 +1 x22 +1 x29 +1 x36 +1 x43 +1 x50 = 1 ;
+1 x1 +1 x16 +1 x23 +1 x30 +1 x37 +1 x44 +1 x51 = 1 ;
+1 x2 +1 x9 +1 x24 +1 x31 +1 x38 +1 x45 +1 x52 = 1 ;
+1 x3 +1 x10 +1 x17 +1 x32 +1 x39 +1 x46 +1 x53 = 1 ;
+1 x4 +1 x11 +1 x18 +1 x25 +1 x40 +1 x47 +1 x54 = 1 ;
+1 x5 +1 x12 +1 x19 +1 x26 +1 x33 +1 x48 +1 x55 = 1 ;
+1 x6 +1 x13 +1 x20 +1 x27 +1 x34 +1 x41 +1 x56 = 1 ;
+1 x7 +1 x14 +1 x21 +1 x28 +1 x35 +1 x42 +1 x49 = 1 ;

+1 x57 +2 x58 +4 x59 +8 x60 +16 x61  >= 0 ;
+1 x62 +2 x63 +4 x64 +8 x65 +16 x66  >= 0 ;
+1 x67 +2 x68 +4 x69 +8 x70 +16 x71  >= 0 ;
+1 x72 +2 x73 +4 x74 +8 x75 +16 x76  >= 0 ;
+1 x77 +2 x78 +4 x79 +8 x80 +16 x81  >= 0 ;
+1 x82 +2 x83 +4 x84 +8 x85 +16 x86  >= 0 ;
+1 x87 +2 x88 +4 x89 +8 x90 +16 x91  >= 0 ;
+1 x92 +2 x93 +4 x94 +8 x95 +16 x96  >= 0 ;


+1 x97 +2 x98 +4 x99 +8 x100 +16 x101  >= 0 ;
+1 x57 +2 x58 +4 x59 +8 x60 +16 x61 -1 x62 -2 x63 -4 x64 -8 x65 -16 x66 +8 x1 +1 x97 +2 x98 +4 x99 +8 x100 +16 x101  = 7 ;

+1 x102 +2 x103 +4 x104 +8 x105 +16 x106  >= 0 ;
+1 x57 +2 x58 +4 x59 +8 x60 +16 x61 -1 x67 -2 x68 -4 x69 -8 x70 -16 x71 +8 x2 +1 x102 +2 x103 +4 x104 +8 x105 +16 x106  = 7 ;

+1 x107 +2 x108 +4 x109 +8 x110 +16 x111  >= 0 ;
+1 x57 +2 x58 +4 x59 +8 x60 +16 x61 -1 x72 -2 x73 -4 x74 -8 x75 -16 x76 +8 x3 +1 x107 +2 x108 +4 x109 +8 x110 +16 x111  = 7 ;

+1 x112 +2 x113 +4 x114 +8 x115 +16 x116  >= 0 ;
+1 x57 +2 x58 +4 x59 +8 x60 +16 x61 -1 x77 -2 x78 -4 x79 -8 x80 -16 x81 +8 x4 +1 x112 +2 x113 +4 x114 +8 x115 +16 x116  = 7 ;

+1 x117 +2 x118 +4 x119 +8 x120 +16 x121  >= 0 ;
+1 x57 +2 x58 +4 x59 +8 x60 +16 x61 -1 x82 -2 x83 -4 x84 -8 x85 -16 x86 +8 x5 +1 x117 +2 x118 +4 x119 +8 x120 +16 x121  = 7 ;

+1 x122 +2 x123 +4 x124 +8 x125 +16 x126  >= 0 ;
+1 x57 +2 x58 +4 x59 +8 x60 +16 x61 -1 x87 -2 x88 -4 x89 -8 x90 -16 x91 +8 x6 +1 x122 +2 x123 +4 x124 +8 x125 +16 x126  = 7 ;

+1 x127 +2 x128 +4 x129 +8 x130 +16 x131  >= 0 ;
+1 x57 +2 x58 +4 x59 +8 x60 +16 x61 -1 x92 -2 x93 -4 x94 -8 x95 -16 x96 +8 x7 +1 x127 +2 x128 +4 x129 +8 x130 +16 x131  = 7 ;

+1 x132 +2 x133 +4 x134 +8 x135 +16 x136  >= 0 ;
+1 x62 +2 x63 +4 x64 +8 x65 +16 x66 -1 x57 -2 x58 -4 x59 -8 x60 -16 x61 +8 x8 +1 x132 +2 x133 +4 x134 +8 x135 +16 x136  = 7 ;

+1 x137 +2 x138 +4 x139 +8 x140 +16 x141  >= 0 ;
+1 x62 +2 x63 +4 x64 +8 x65 +16 x66 -1 x67 -2 x68 -4 x69 -8 x70 -16 x71 +8 x9 +1 x137 +2 x138 +4 x139 +8 x140 +16 x141  = 7 ;

+1 x142 +2 x143 +4 x144 +8 x145 +16 x146  >= 0 ;
+1 x62 +2 x63 +4 x64 +8 x65 +16 x66 -1 x72 -2 x73 -4 x74 -8 x75 -16 x76 +8 x10 +1 x142 +2 x143 +4 x144 +8 x145 +16 x146  = 7 ;

+1 x147 +2 x148 +4 x149 +8 x150 +16 x151  >= 0 ;
+1 x62 +2 x63 +4 x64 +8 x65 +16 x66 -1 x77 -2 x78 -4 x79 -8 x80 -16 x81 +8 x11 +1 x147 +2 x148 +4 x149 +8 x150 +16 x151  = 7 ;

+1 x152 +2 x153 +4 x154 +8 x155 +16 x156  >= 0 ;
+1 x62 +2 x63 +4 x64 +8 x65 +16 x66 -1 x82 -2 x83 -4 x84 -8 x85 -16 x86 +8 x12 +1 x152 +2 x153 +4 x154 +8 x155 +16 x156  = 7 ;

+1 x157 +2 x158 +4 x159 +8 x160 +16 x161  >= 0 ;
+1 x62 +2 x63 +4 x64 +8 x65 +16 x66 -1 x87 -2 x88 -4 x89 -8 x90 -16 x91 +8 x13 +1 x157 +2 x158 +4 x159 +8 x160 +16 x161  = 7 ;

+1 x162 +2 x163 +4 x164 +8 x165 +16 x166  >= 0 ;
+1 x62 +2 x63 +4 x64 +8 x65 +16 x66 -1 x92 -2 x93 -4 x94 -8 x95 -16 x96 +8 x14 +1 x162 +2 x163 +4 x164 +8 x165 +16 x166  = 7 ;

+1 x167 +2 x168 +4 x169 +8 x170 +16 x171  >= 0 ;
+1 x67 +2 x68 +4 x69 +8 x70 +16 x71 -1 x57 -2 x58 -4 x59 -8 x60 -16 x61 +8 x15 +1 x167 +2 x168 +4 x169 +8 x170 +16 x171  = 7 ;

+1 x172 +2 x173 +4 x174 +8 x175 +16 x176  >= 0 ;
+1 x67 +2 x68 +4 x69 +8 x70 +16 x71 -1 x62 -2 x63 -4 x64 -8 x65 -16 x66 +8 x16 +1 x172 +2 x173 +4 x174 +8 x175 +16 x176  = 7 ;

+1 x177 +2 x178 +4 x179 +8 x180 +16 x181  >= 0 ;
+1 x67 +2 x68 +4 x69 +8 x70 +16 x71 -1 x72 -2 x73 -4 x74 -8 x75 -16 x76 +8 x17 +1 x177 +2 x178 +4 x179 +8 x180 +16 x181  = 7 ;

+1 x182 +2 x183 +4 x184 +8 x185 +16 x186  >= 0 ;
+1 x67 +2 x68 +4 x69 +8 x70 +16 x71 -1 x77 -2 x78 -4 x79 -8 x80 -16 x81 +8 x18 +1 x182 +2 x183 +4 x184 +8 x185 +16 x186  = 7 ;

+1 x187 +2 x188 +4 x189 +8 x190 +16 x191  >= 0 ;
+1 x67 +2 x68 +4 x69 +8 x70 +16 x71 -1 x82 -2 x83 -4 x84 -8 x85 -16 x86 +8 x19 +1 x187 +2 x188 +4 x189 +8 x190 +16 x191  = 7 ;

+1 x192 +2 x193 +4 x194 +8 x195 +16 x196  >= 0 ;
+1 x67 +2 x68 +4 x69 +8 x70 +16 x71 -1 x87 -2 x88 -4 x89 -8 x90 -16 x91 +8 x20 +1 x192 +2 x193 +4 x194 +8 x195 +16 x196  = 7 ;

+1 x197 +2 x198 +4 x199 +8 x200 +16 x201  >= 0 ;
+1 x67 +2 x68 +4 x69 +8 x70 +16 x71 -1 x92 -2 x93 -4 x94 -8 x95 -16 x96 +8 x21 +1 x197 +2 x198 +4 x199 +8 x200 +16 x201  = 7 ;

+1 x202 +2 x203 +4 x204 +8 x205 +16 x206  >= 0 ;
+1 x72 +2 x73 +4 x74 +8 x75 +16 x76 -1 x57 -2 x58 -4 x59 -8 x60 -16 x61 +8 x22 +1 x202 +2 x203 +4 x204 +8 x205 +16 x206  = 7 ;

+1 x207 +2 x208 +4 x209 +8 x210 +16 x211  >= 0 ;
+1 x72 +2 x73 +4 x74 +8 x75 +16 x76 -1 x62 -2 x63 -4 x64 -8 x65 -16 x66 +8 x23 +1 x207 +2 x208 +4 x209 +8 x210 +16 x211  = 7 ;

+1 x212 +2 x213 +4 x214 +8 x215 +16 x216  >= 0 ;
+1 x72 +2 x73 +4 x74 +8 x75 +16 x76 -1 x67 -2 x68 -4 x69 -8 x70 -16 x71 +8 x24 +1 x212 +2 x213 +4 x214 +8 x215 +16 x216  = 7 ;

+1 x217 +2 x218 +4 x219 +8 x220 +16 x221  >= 0 ;
+1 x72 +2 x73 +4 x74 +8 x75 +16 x76 -1 x77 -2 x78 -4 x79 -8 x80 -16 x81 +8 x25 +1 x217 +2 x218 +4 x219 +8 x220 +16 x221  = 7 ;

+1 x222 +2 x223 +4 x224 +8 x225 +16 x226  >= 0 ;
+1 x72 +2 x73 +4 x74 +8 x75 +16 x76 -1 x82 -2 x83 -4 x84 -8 x85 -16 x86 +8 x26 +1 x222 +2 x223 +4 x224 +8 x225 +16 x226  = 7 ;

+1 x227 +2 x228 +4 x229 +8 x230 +16 x231  >= 0 ;
+1 x72 +2 x73 +4 x74 +8 x75 +16 x76 -1 x87 -2 x88 -4 x89 -8 x90 -16 x91 +8 x27 +1 x227 +2 x228 +4 x229 +8 x230 +16 x231  = 7 ;

+1 x232 +2 x233 +4 x234 +8 x235 +16 x236  >= 0 ;
+1 x72 +2 x73 +4 x74 +8 x75 +16 x76 -1 x92 -2 x93 -4 x94 -8 x95 -16 x96 +8 x28 +1 x232 +2 x233 +4 x234 +8 x235 +16 x236  = 7 ;

+1 x237 +2 x238 +4 x239 +8 x240 +16 x241  >= 0 ;
+1 x77 +2 x78 +4 x79 +8 x80 +16 x81 -1 x57 -2 x58 -4 x59 -8 x60 -16 x61 +8 x29 +1 x237 +2 x238 +4 x239 +8 x240 +16 x241  = 7 ;

+1 x242 +2 x243 +4 x244 +8 x245 +16 x246  >= 0 ;
+1 x77 +2 x78 +4 x79 +8 x80 +16 x81 -1 x62 -2 x63 -4 x64 -8 x65 -16 x66 +8 x30 +1 x242 +2 x243 +4 x244 +8 x245 +16 x246  = 7 ;

+1 x247 +2 x248 +4 x249 +8 x250 +16 x251  >= 0 ;
+1 x77 +2 x78 +4 x79 +8 x80 +16 x81 -1 x67 -2 x68 -4 x69 -8 x70 -16 x71 +8 x31 +1 x247 +2 x248 +4 x249 +8 x250 +16 x251  = 7 ;

+1 x252 +2 x253 +4 x254 +8 x255 +16 x256  >= 0 ;
+1 x77 +2 x78 +4 x79 +8 x80 +16 x81 -1 x72 -2 x73 -4 x74 -8 x75 -16 x76 +8 x32 +1 x252 +2 x253 +4 x254 +8 x255 +16 x256  = 7 ;

+1 x257 +2 x258 +4 x259 +8 x260 +16 x261  >= 0 ;
+1 x77 +2 x78 +4 x79 +8 x80 +16 x81 -1 x82 -2 x83 -4 x84 -8 x85 -16 x86 +8 x33 +1 x257 +2 x258 +4 x259 +8 x260 +16 x261  = 7 ;

+1 x262 +2 x263 +4 x264 +8 x265 +16 x266  >= 0 ;
+1 x77 +2 x78 +4 x79 +8 x80 +16 x81 -1 x87 -2 x88 -4 x89 -8 x90 -16 x91 +8 x34 +1 x262 +2 x263 +4 x264 +8 x265 +16 x266  = 7 ;

+1 x267 +2 x268 +4 x269 +8 x270 +16 x271  >= 0 ;
+1 x77 +2 x78 +4 x79 +8 x80 +16 x81 -1 x92 -2 x93 -4 x94 -8 x95 -16 x96 +8 x35 +1 x267 +2 x268 +4 x269 +8 x270 +16 x271  = 7 ;

+1 x272 +2 x273 +4 x274 +8 x275 +16 x276  >= 0 ;
+1 x82 +2 x83 +4 x84 +8 x85 +16 x86 -1 x57 -2 x58 -4 x59 -8 x60 -16 x61 +8 x36 +1 x272 +2 x273 +4 x274 +8 x275 +16 x276  = 7 ;

+1 x277 +2 x278 +4 x279 +8 x280 +16 x281  >= 0 ;
+1 x82 +2 x83 +4 x84 +8 x85 +16 x86 -1 x62 -2 x63 -4 x64 -8 x65 -16 x66 +8 x37 +1 x277 +2 x278 +4 x279 +8 x280 +16 x281  = 7 ;

+1 x282 +2 x283 +4 x284 +8 x285 +16 x286  >= 0 ;
+1 x82 +2 x83 +4 x84 +8 x85 +16 x86 -1 x67 -2 x68 -4 x69 -8 x70 -16 x71 +8 x38 +1 x282 +2 x283 +4 x284 +8 x285 +16 x286  = 7 ;

+1 x287 +2 x288 +4 x289 +8 x290 +16 x291  >= 0 ;
+1 x82 +2 x83 +4 x84 +8 x85 +16 x86 -1 x72 -2 x73 -4 x74 -8 x75 -16 x76 +8 x39 +1 x287 +2 x288 +4 x289 +8 x290 +16 x291  = 7 ;

+1 x292 +2 x293 +4 x294 +8 x295 +16 x296  >= 0 ;
+1 x82 +2 x83 +4 x84 +8 x85 +16 x86 -1 x77 -2 x78 -4 x79 -8 x80 -16 x81 +8 x40 +1 x292 +2 x293 +4 x294 +8 x295 +16 x296  = 7 ;

+1 x297 +2 x298 +4 x299 +8 x300 +16 x301  >= 0 ;
+1 x82 +2 x83 +4 x84 +8 x85 +16 x86 -1 x87 -2 x88 -4 x89 -8 x90 -16 x91 +8 x41 +1 x297 +2 x298 +4 x299 +8 x300 +16 x301  = 7 ;

+1 x302 +2 x303 +4 x304 +8 x305 +16 x306  >= 0 ;
+1 x82 +2 x83 +4 x84 +8 x85 +16 x86 -1 x92 -2 x93 -4 x94 -8 x95 -16 x96 +8 x42 +1 x302 +2 x303 +4 x304 +8 x305 +16 x306  = 7 ;

+1 x307 +2 x308 +4 x309 +8 x310 +16 x311  >= 0 ;
+1 x87 +2 x88 +4 x89 +8 x90 +16 x91 -1 x57 -2 x58 -4 x59 -8 x60 -16 x61 +8 x43 +1 x307 +2 x308 +4 x309 +8 x310 +16 x311  = 7 ;

+1 x312 +2 x313 +4 x314 +8 x315 +16 x316  >= 0 ;
+1 x87 +2 x88 +4 x89 +8 x90 +16 x91 -1 x62 -2 x63 -4 x64 -8 x65 -16 x66 +8 x44 +1 x312 +2 x313 +4 x314 +8 x315 +16 x316  = 7 ;

+1 x317 +2 x318 +4 x319 +8 x320 +16 x321  >= 0 ;
+1 x87 +2 x88 +4 x89 +8 x90 +16 x91 -1 x67 -2 x68 -4 x69 -8 x70 -16 x71 +8 x45 +1 x317 +2 x318 +4 x319 +8 x320 +16 x321  = 7 ;

+1 x322 +2 x323 +4 x324 +8 x325 +16 x326  >= 0 ;
+1 x87 +2 x88 +4 x89 +8 x90 +16 x91 -1 x72 -2 x73 -4 x74 -8 x75 -16 x76 +8 x46 +1 x322 +2 x323 +4 x324 +8 x325 +16 x326  = 7 ;

+1 x327 +2 x328 +4 x329 +8 x330 +16 x331  >= 0 ;
+1 x87 +2 x88 +4 x89 +8 x90 +16 x91 -1 x77 -2 x78 -4 x79 -8 x80 -16 x81 +8 x47 +1 x327 +2 x328 +4 x329 +8 x330 +16 x331  = 7 ;

+1 x332 +2 x333 +4 x334 +8 x335 +16 x336  >= 0 ;
+1 x87 +2 x88 +4 x89 +8 x90 +16 x91 -1 x82 -2 x83 -4 x84 -8 x85 -16 x86 +8 x48 +1 x332 +2 x333 +4 x334 +8 x335 +16 x336  = 7 ;

+1 x337 +2 x338 +4 x339 +8 x340 +16 x341  >= 0 ;
+1 x87 +2 x88 +4 x89 +8 x90 +16 x91 -1 x92 -2 x93 -4 x94 -8 x95 -16 x96 +8 x49 +1 x337 +2 x338 +4 x339 +8 x340 +16 x341  = 7 ;